
;this file is automatically generated: Tue Oct 30 17:23:36 GMT 2018

;declarations generated

(declare-fun oclExcludes ( Int Int) Bool )
(declare-fun type_cef0f714_dae4_4415_b5ec_3ca841851fc6_D ( Int) Bool )
(declare-fun oclSelect ( Int Bool) Int )
(declare-fun Cardinality ( Int) Int )
(declare-fun obj_bcbcec31_91e3_43e0_bf9c_22ba64f43295 ( Int) Int )
(declare-fun type_348b414f_59ce_4d20_9110_6de95381e6d9_C ( Int) Bool )
(declare-fun container_ ( Int) Int )
(declare-fun type_5c0c43f9_bd21_446a_b198_d19876c9b1e4_B ( Int) Bool )
(declare-fun oclIncludes ( Int Int) Bool )
(declare-fun aux1 () Int )
(declare-fun aux0 () Int )
(declare-fun aux3 () Int )
(declare-fun aux2 () Int )
(declare-fun aux4 () Int )
(declare-fun weight4 () Int )
(declare-fun weight3 () Int )
(declare-fun ObjAt ( Int Int) Int )
(declare-fun weight2 () Int )
(declare-fun weight1 () Int )
(declare-fun weight0 () Int )
(declare-fun type_23d6d117_89d8_4e63_811b_c955ab956247_A ( Int) Bool )

;formula(s) generated
(assert (and (>= aux0 0) (<= aux0 1)))
(assert (or (or (forall ((b Int)) (=> (and ( type_5c0c43f9_bd21_446a_b198_d19876c9b1e4_B b )  ( type_23d6d117_89d8_4e63_811b_c955ab956247_A b ) ) (forall ((c Int)) (=> (and ( type_348b414f_59ce_4d20_9110_6de95381e6d9_C c )  ( type_23d6d117_89d8_4e63_811b_c955ab956247_A c ) ) (not (= ( obj_bcbcec31_91e3_43e0_bf9c_22ba64f43295 b )  ( obj_bcbcec31_91e3_43e0_bf9c_22ba64f43295 c ) ) ))))) (and (= aux0 1) true)) (and (= aux0 0) false)))
(assert (and (=> (= aux0 0) (= weight0 1)) (=> (= aux0 1) (= weight0 0))))
(assert (and (>= aux1 0) (<= aux1 1)))
(assert (and (>= aux2 0) (<= aux2 1)))
(assert (and (>= aux3 0) (<= aux3 1)))
(assert (and (>= aux4 0) (<= aux4 1)))
(assert (or (or (exists ((p Int)) ( type_23d6d117_89d8_4e63_811b_c955ab956247_A ( obj_bcbcec31_91e3_43e0_bf9c_22ba64f43295 p )  ) ) (and (= aux1 1) true)) (and (= aux1 0) false)))
(assert (and (=> (= aux1 0) (= weight1 1)) (=> (= aux1 1) (= weight1 0))))
(assert (or (or (exists ((p Int)) (and ( type_5c0c43f9_bd21_446a_b198_d19876c9b1e4_B ( obj_bcbcec31_91e3_43e0_bf9c_22ba64f43295 p )  )  ( type_23d6d117_89d8_4e63_811b_c955ab956247_A ( obj_bcbcec31_91e3_43e0_bf9c_22ba64f43295 p )  ) )) (and (= aux2 1) true)) (and (= aux2 0) false)))
(assert (and (=> (= aux2 0) (= weight2 1)) (=> (= aux2 1) (= weight2 0))))
(assert (or (or (exists ((p Int)) (and ( type_348b414f_59ce_4d20_9110_6de95381e6d9_C ( obj_bcbcec31_91e3_43e0_bf9c_22ba64f43295 p )  )  ( type_23d6d117_89d8_4e63_811b_c955ab956247_A ( obj_bcbcec31_91e3_43e0_bf9c_22ba64f43295 p )  ) )) (and (= aux3 1) true)) (and (= aux3 0) false)))
(assert (and (=> (= aux3 0) (= weight3 1)) (=> (= aux3 1) (= weight3 0))))
(assert (or (or (exists ((p Int)) (and (and (and ( type_cef0f714_dae4_4415_b5ec_3ca841851fc6_D ( obj_bcbcec31_91e3_43e0_bf9c_22ba64f43295 p )  )  ( type_23d6d117_89d8_4e63_811b_c955ab956247_A ( obj_bcbcec31_91e3_43e0_bf9c_22ba64f43295 p )  ) ) ( type_5c0c43f9_bd21_446a_b198_d19876c9b1e4_B ( obj_bcbcec31_91e3_43e0_bf9c_22ba64f43295 p )  ) ) ( type_348b414f_59ce_4d20_9110_6de95381e6d9_C ( obj_bcbcec31_91e3_43e0_bf9c_22ba64f43295 p )  ) )) (and (= aux4 1) true)) (and (= aux4 0) false)))
(assert (and (=> (= aux4 0) (= weight4 1)) (=> (= aux4 1) (= weight4 0))))
(assert (= (+ (+ (+ (+ weight0 weight1) weight2) weight3) weight4) 4))
(assert (not (and (and (and (and (= weight0 0) (= weight1 1)) (= weight2 1)) (= weight3 1)) (= weight4 1)) ))
(assert (not (and (and (and (and (= weight0 1) (= weight1 1)) (= weight2 1)) (= weight3 1)) (= weight4 0)) ))
